\ENCODING=ISO-8859-1
\Problem name: IloCplex

Minimize
 obj1: 1000000 λ0 + 1000000 λ1 + 1000000 λ2 + 1000000 λ3
       + 1000000 λ4 + 1000000 λ5 + 1000000 λ6 + 1000000 λ7
       + 1000000 λ8 + 1000000 λ9 + 1000000 λ10 + 1000000 λ11
       + 1000000 λ12 + 1000000 λ13 + 1000000 λ14 + 1000000 λ15
       + 1000000 λ16 + 1000000 λ17 + 1000000 λ18 + 1000000 λ19
       + 1000000 λ20 + 1000000 λ21 + 1000000 λ22 + 1000000 λ23
       + 1000000 λ24 + 1000000 λ25 + 1000000 λ26 + 1000000 λ27
       + 1000000 λ28 + 1000000 λ29 + 1000000 λ30 + 1000000 λ31
       + 1000000 λ32 + 1000000 λ33 + 1000000 λ34 + 1000000 λ35
       + 1000000 λ36 + 1000000 λ37 + 1000000 λ38 + 1000000 λ39
       + 1000000 λ40 + 1000000 λ41 + 1000000 λ42 + 1000000 λ43
       + 1000000 λ44 + 1000000 λ45 + 1000000 λ46 + 1000000 λ47
       + 1000000 λ48 + 1000000 λ49 + 1000000 λ50 + 1000000 λ51
       + 1000000 λ52 + 1000000 λ53 + 1000000 λ54 + 1000000 λ55
       + 1000000 λ56 + 1000000 λ57 + 1000000 λ58 + 1000000 λ59
       + 1000000 λ60 + 1000000 λ61 + 1000000 λ62 + 1000000 λ63
       + 1000000 λ64 + 1000000 λ65 + 1000000 λ66 + 1000000 λ67
       + 1000000 λ68 + 1000000 λ69 + 1000000 λ70 + 1000000 λ71
       + 1000000 λ72 + 1000000 λ73 + 1000000 λ74 + 1000000 λ75
       + 1000000 λ76 + 1000000 λ77 + 1000000 λ78 + 1000000 λ79
       + 1000000 λ80 + 1000000 λ81 + 1000000 λ82 + 1000000 λ83
       + 1000000 λ84 + 1000000 λ85 + 1000000 λ86 + 1000000 λ87
       + 1000000 λ88 + 1000000 λ89 + 1000000 λ90 + 1000000 λ91
       + 1000000 λ92 + 1000000 λ93 + 1000000 λ94 + 1000000 λ95
       + 1000000 λ96 + 1000000 λ97 + 1000000 λ98 + 1000000 λ99
       + 1000000 λ100 + 1000000 λ101 + 1000000 λ102 + 1000000 λ103
       + 1000000 λ104 + 1000000 λ105 + 1000000 λ106 + 1000000 λ107
       + 1000000 λ108 + 1000000 λ109 + 1000000 λ110 + 1000000 λ111
       + 1000000 λ112 + 1000000 λ113 + 1000000 λ114 + 1000000 λ115
       + 1000000 λ116 + 1000000 λ117 + 1000000 λ118 + 1000000 λ119
       + 1000000 λ120 + 1000000 λ121 + 1000000 λ122 + 1000000 λ123
       + 1000000 λ124 + 1000000 λ125 + 1000000 λ126 + 1000000 λ127
       + 1000000 λ128 + 1000000 λ129 + 1000000 λ130 + 1000000 λ131
       + 1000000 λ132 + 1000000 λ133 + 1000000 λ134 + 1000000 λ135
       + 1000000 λ136 + 1000000 λ137 + 1000000 λ138 + 1000000 λ139
       + 1000000 λ140 + 1000000 λ141 + 1000000 λ142 + 1000000 λ143
       + 1000000 λ144 + 1000000 λ145 + 1000000 λ146 + 1000000 λ147
       + 1000000 λ148 + 1000000 λ149 + 1000000 λ150 + 1000000 λ151
       + 1000000 λ152 + 1000000 λ153 + 1000000 λ154 + 1000000 λ155
       + 1000000 λ156 + 1000000 λ157 + 1000000 λ158 + 1000000 λ159
       + 1000000 λ160 + 1000000 λ161 + 1000000 λ162 + 1000000 λ163
       + 1000000 λ164 + 1000000 λ165 + 1000000 λ166 + 1000000 λ167
       + 1000000 λ168 + 1000000 λ169 + 1000000 λ170 + 1000000 λ171
       + 1000000 λ172 + 1000000 λ173 + 1000000 λ174 + 1000000 λ175
       + 1000000 λ176 + 1000000 λ177 + 1000000 λ178 + 1000000 λ179
       + 1000000 λ180 + 1000000 λ181 + 1000000 λ182 + 1000000 λ183
       + 1000000 λ184 + 1000000 λ185 + 1000000 λ186 + 1000000 λ187
       + 1000000 λ188 + 1000000 λ189 + 1000000 λ190 + 1000000 λ191
       + 1000000 λ192 + 1000000 λ193 + 1000000 λ194 + 1000000 λ195
       + 1000000 λ196 + 1000000 λ197 + 1000000 λ198 + 1000000 λ199
       + λ200 + λ201 + λ202 + λ203 + λ204 + λ205 + λ206
       + λ207 + λ208 + λ209 + λ210 + λ211 + λ212 + λ213
       + λ214 + λ215 + λ216 + λ217 + λ218 + λ219 + λ220
       + λ221 + λ222 + λ223 + λ224 + λ225 + λ226 + λ227
       + λ228 + λ229 + λ230 + λ231 + λ232 + λ233 + λ234
       + λ235 + λ236 + λ237 + λ238 + λ239 + λ240 + λ241
       + λ242 + λ243 + λ244 + λ245 + λ246 + λ247 + λ248
       + λ249 + λ250 + λ251 + λ252 + λ253 + λ254 + λ255
       + λ256 + λ257 + λ258 + λ259 + λ260 + λ261 + λ262
       + λ263 + λ264 + λ265 + λ266 + λ267 + λ268 + λ269
       + λ270 + λ271 + λ272 + λ273 + λ274 + λ275 + λ276
       + λ277 + λ278 + λ279 + λ280 + λ281 + λ282 + λ283
       + λ284 + λ285 + λ286 + λ287 + λ288 + λ289 + λ290
       + λ291 + λ292 + λ293 + λ294 + λ295 + λ296 + λ297
       + λ298 + λ299 + λ300 + λ301 + λ302 + λ303 + λ304
       + λ305 + λ306 + λ307 + λ308 + λ309 + λ310 + λ311
       + λ312 + λ313 + λ314 + λ315 + λ316 + λ317 + λ318
       + λ319 + λ320 + λ321 + λ322 + λ323 + λ324 + λ325
       + λ326 + λ327 + λ328 + λ329 + λ330 + λ331 + λ332
       + λ333 + λ334 + λ335 + λ336 + λ337 + λ338 + λ339
       + λ340 + λ341 + λ342 + λ343 + λ344 + λ345 + λ346
       + λ347 + λ348 + λ349 + λ350 + λ351 + λ352 + λ353
       + λ354 + λ355 + λ356 + λ357 + λ358 + λ359 + λ360
       + λ361 + λ362 + λ363 + λ364 + λ365 + λ366 + λ367
       + λ368 + λ369 + λ370 + λ371 + λ372 + λ373 + λ374
       + λ375 + λ376 + λ377 + λ378 + λ379 + λ380 + λ381
       + λ382 + λ383 + λ384 + λ385 + λ386 + λ387 + λ388
       + λ389 + λ390 + λ391 + λ392 + λ393 + λ394 + λ395
       + λ396 + λ397 + λ398 + λ399 + λ400 + λ401 + λ402
       + λ403 + λ404 + λ405 + λ406 + λ407 + λ408 + λ409
       + λ410 + λ411 + λ412 + λ413 + λ414 + λ415 + λ416
       + λ417 + λ418 + λ419 + λ420 + λ421 + λ422 + λ423
       + λ424 + λ425 + λ426 + λ427 + λ428 + λ429 + λ430
       + λ431 + λ432 + λ433 + λ434 + λ435 + λ436 + λ437
       + λ438 + λ439 + λ440 + λ441 + λ442 + λ443 + λ444
       + λ445 + λ446 + λ447 + λ448 + λ449 + λ450 + λ451
       + λ452 + λ453 + λ454 + λ455 + λ456 + λ457 + λ458
       + λ459 + λ460 + λ461 + λ462 + λ463 + λ464 + λ465
       + λ466 + λ467 + λ468 + λ469 + λ470 + λ471 + λ472
       + λ473 + λ474 + λ475 + λ476 + λ477 + λ478 + λ479
       + λ480 + λ481 + λ482 + λ483 + λ484 + λ485 + λ486
       + λ487 + λ488 + λ489 + λ490 + λ491 + λ492 + λ493
       + λ494 + λ495 + λ496 + λ497 + λ498 + λ499 + λ500
       + λ501 + λ502 + λ503 + λ504 + λ505 + λ506 + λ507
       + λ508 + λ509 + λ510 + λ511 + λ512 + λ513 + λ514
       + λ515 + λ516 + λ517 + λ518 + λ519 + λ520 + λ521
       + λ522 + λ523 + λ524 + λ525 + λ526 + λ527 + λ528
       + λ529 + λ530 + λ531 + λ532 + λ533 + λ534 + λ535
       + λ536 + λ537 + λ538 + λ539 + λ540 + λ541 + λ542
       + λ543 + λ544 + λ545 + λ546 + λ547 + λ548 + λ549
       + λ550 + λ551 + λ552 + λ553 + λ554 + λ555 + λ556
       + λ557 + λ558 + λ559 + λ560 + λ561 + λ562 + λ563
       + λ564 + λ565 + λ566 + λ567 + λ568 + λ569 + λ570
       + λ571 + λ572 + λ573 + λ574 + λ575 + λ576 + λ577
       + λ578 + λ579 + λ580 + λ581 + λ582 + λ583 + λ584
       + λ585 + λ586 + λ587 + λ588 + λ589 + λ590 + λ591
       + λ592 + λ593 + λ594 + λ595 + λ596 + λ597 + λ598
       + λ599 + λ600 + λ601 + λ602 + λ603 + λ604 + λ605
       + λ606 + λ607 + λ608 + λ609 + λ610 + λ611 + λ612
       + λ613 + λ614 + λ615 + λ616 + λ617 + λ618 + λ619
       + λ620 + λ621 + λ622 + λ623 + λ624 + λ625 + λ626
       + λ627 + λ628 + λ629 + λ630 + λ631 + λ632 + λ633
       + λ634 + λ635 + λ636 + λ637 + λ638 + λ639 + λ640
       + λ641 + λ642 + λ643 + λ644 + λ645 + λ646 + λ647
       + λ648 + λ649 + λ650 + λ651 + λ652 + λ653 + λ654
       + λ655 + λ656 + λ657 + λ658 + λ659 + λ660 + λ661
       + λ662 + λ663 + λ664 + λ665 + λ666 + λ667 + λ668
       + λ669 + λ670 + λ671 + λ672 + λ673 + λ674 + λ675
       + λ676 + λ677 + λ678 + λ679 + λ680 + λ681 + λ682
       + λ683 + λ684 + λ685 + λ686 + λ687 + λ688 + λ689
       + λ690 + λ691 + λ692 + λ693 + λ694 + λ695 + λ696
       + λ697 + λ698 + λ699 + λ700 + λ701 + λ702 + λ703
       + λ704 + λ705 + λ706 + λ707 + λ708 + λ709 + λ710
       + λ711 + λ712 + λ713 + λ714 + λ715 + λ716 + λ717
       + λ718 + λ719 + λ720 + λ721 + λ722 + λ723 + λ724
       + λ725 + λ726 + λ727 + λ728 + λ729 + λ730 + λ731
       + λ732 + λ733 + λ734 + λ735 + λ736 + λ737 + λ738
       + λ739 + λ740 + λ741 + λ742 + λ743 + λ744 + λ745
       + λ746 + λ747 + λ748 + λ749 + λ750 + λ751 + λ752
       + λ753 + λ754 + λ755 + λ756 + λ757 + λ758 + λ759
       + λ760 + λ761 + λ762 + λ763 + λ764 + λ765 + λ766
       + λ767 + λ768 + λ769 + λ770 + λ771 + λ772 + λ773
       + λ774 + λ775 + λ776 + λ777 + λ778 + λ779 + λ780
       + λ781 + λ782 + λ783 + λ784 + λ785 + λ786 + λ787
       + λ788 + λ789 + λ790 + λ791 + λ792 + λ793 + λ794
       + λ795 + λ796 + λ797 + λ798 + λ799 + λ800 + λ801
       + λ802 + λ803 + λ804 + λ805 + λ806 + λ807 + λ808
       + λ809 + λ810 + λ811 + λ812 + λ813 + λ814 + λ815
       + λ816 + λ817 + λ818 + λ819 + λ820 + λ821 + λ822
       + λ823 + λ824 + λ825 + λ826 + λ827 + λ828 + λ829
       + λ830 + λ831 + λ832 + λ833 + λ834 + λ835 + λ836
       + λ837 + λ838 + λ839 + λ840 + λ841 + λ842 + λ843
       + λ844
Subject To
 c1:   λ0 + λ465 + λ506 + λ644  = 1
 c2:   λ1 + λ450 + λ461 + λ629  = 1
 c3:   λ2 + λ445 + λ449  = 1
 c4:   λ3 + λ508 + λ709 + λ814  = 1
 c5:   λ4 + λ509  = 1
 c6:   λ5 + λ510  = 1
 c7:   λ6 + λ511 + λ686 + λ690 + λ698  = 1
 c8:   λ7 + λ512 + λ645 + λ679 + λ689  = 1
 c9:   λ8 + λ501 + λ507 + λ683  = 1
 c10:  λ9 + λ522 + λ657 + λ684 + λ688  = 1
 c11:  λ10 + λ523 + λ651 + λ659  = 1
 c12:  λ11 + λ524  = 1
 c13:  λ12 + λ525  = 1
 c14:  λ13 + λ526  = 1
 c15:  λ14 + λ527  = 1
 c16:  λ15 + λ528  = 1
 c17:  λ16 + λ529 + λ691 + λ703  = 1
 c18:  λ17 + λ530  = 1
 c19:  λ18 + λ531  = 1
 c20:  λ19 + λ532  = 1
 c21:  λ20 + λ533  = 1
 c22:  λ21 + λ534  = 1
 c23:  λ22 + λ535 + λ660  = 1
 c24:  λ23 + λ536  = 1
 c25:  λ24 + λ537 + λ663  = 1
 c26:  λ25 + λ538 + λ636 + λ654 + λ754  = 1
 c27:  λ26 + λ539 + λ720 + λ722  = 1
 c28:  λ27 + λ540 + λ723 + λ756  = 1
 c29:  λ28 + λ541 + λ638 + λ719  = 1
 c30:  λ29 + λ542 + λ758  = 1
 c31:  λ30 + λ543 + λ631 + λ635 + λ721  = 1
 c32:  λ31 + λ544 + λ596 + λ630 + λ682 + λ702  = 1
 c33:  λ32 + λ513 + λ606 + λ619 + λ634 + λ680  = 1
 c34:  λ33 + λ514 + λ620 + λ621 + λ633 + λ681  = 1
 c35:  λ34 + λ515 + λ601 + λ605 + λ618  = 1
 c36:  λ35 + λ516 + λ622 + λ628 + λ687 + λ751 + λ759
       + λ770  = 1
 c37:  λ36 + λ517 + λ588 + λ591 + λ675 + λ701  = 1
 c38:  λ37 + λ518 + λ582 + λ587 + λ674 + λ699  = 1
 c39:  λ38 + λ476 + λ519 + λ574 + λ661  = 1
 c40:  λ39 + λ504 + λ520 + λ570 + λ600 + λ617 + λ673  = 1
 c41:  λ40 + λ500 + λ521 + λ568 + λ599 + λ656 + λ812  = 1
 c42:  λ41 + λ494 + λ499 + λ604  = 1
 c43:  λ42 + λ484 + λ498 + λ586 + λ672  = 1
 c44:  λ43 + λ480 + λ493 + λ616 + λ769  = 1
 c45:  λ44 + λ490 + λ497 + λ671 + λ768  = 1
 c46:  λ45 + λ487 + λ492  = 1
 c47:  λ46 + λ470 + λ479 + λ615 + λ765 + λ767  = 1
 c48:  λ47 + λ474 + λ475 + λ569 + λ695  = 1
 c49:  λ48 + λ462 + λ468 + λ609 + λ613 + λ762 + λ764
       + λ817 + λ833 + λ842  = 1
 c50:  λ49 + λ459 + λ464 + λ603 + λ755 + λ836  = 1
 c51:  λ50 + λ457 + λ460 + λ592 + λ614 + λ640 + λ763
       + λ766  = 1
 c52:  λ51 + λ452 + λ454 + λ760 + λ803 + λ815  = 1
 c53:  λ52 + λ447 + λ456 + λ576 + λ632 + λ761 + λ809  = 1
 c54:  λ53 + λ424 + λ455 + λ602 + λ753 + λ810 + λ816  = 1
 c55:  λ54 + λ441 + λ444 + λ584 + λ774  = 1
 c56:  λ55 + λ440 + λ443 + λ558 + λ641 + λ749 + λ798  = 1
 c57:  λ56 + λ415 + λ439 + λ575 + λ757 + λ802 + λ804  = 1
 c58:  λ57 + λ433 + λ437 + λ557 + λ573 + λ708  = 1
 c59:  λ58 + λ430 + λ458 + λ572 + λ841  = 1
 c60:  λ59 + λ431 + λ438 + λ649 + λ844  = 1
 c61:  λ60 + λ420 + λ426  = 1
 c62:  λ61 + λ422 + λ427 + λ625 + λ746 + λ752 + λ799
       + λ800 + λ801  = 1
 c63:  λ62 + λ428 + λ429 + λ560 + λ662 + λ697  = 1
 c64:  λ63 + λ418 + λ423 + λ552 + λ581 + λ610  = 1
 c65:  λ64 + λ410 + λ413 + λ556 + λ623  = 1
 c66:  λ65 + λ414 + λ416 + λ471 + λ670 + λ742 + λ839  = 1
 c67:  λ66 + λ411 + λ412 + λ551 + λ608 + λ843  = 1
 c68:  λ67 + λ403 + λ405 + λ637 + λ743 + λ744 + λ745
       + λ750 + λ796 + λ838  = 1
 c69:  λ68 + λ400 + λ419 + λ577 + λ648 + λ797 + λ840  = 1
 c70:  λ69 + λ399 + λ408 + λ607 + λ795 + λ837  = 1
 c71:  λ70 + λ406 + λ409 + λ583 + λ835  = 1
 c72:  λ71 + λ397 + λ398 + λ567 + λ706  = 1
 c73:  λ72 + λ392 + λ396  = 1
 c74:  λ73 + λ393 + λ394 + λ489 + λ653 + λ669 + λ678
       + λ736 + λ738 + λ739 + λ740 + λ741 + λ794 + λ832
        = 1
 c75:  λ74 + λ386 + λ390 + λ563 + λ776  = 1
 c76:  λ75 + λ388 + λ391 + λ627 + λ652 + λ668 + λ734
       + λ737 + λ793 + λ831  = 1
 c77:  λ76 + λ384 + λ385 + λ469 + λ566 + λ585 + λ830  = 1
 c78:  λ77 + λ363 + λ383 + λ829  = 1
 c79:  λ78 + λ381 + λ382 + λ432 + λ590 + λ595 + λ667
       + λ685 + λ700 + λ735 + λ792 + λ828  = 1
 c80:  λ79 + λ379 + λ380 + λ467 + λ491 + λ666 + λ705
       + λ716 + λ733 + λ785 + λ786 + λ827  = 1
 c81:  λ80 + λ375 + λ377  = 1
 c82:  λ81 + λ376 + λ378 + λ564  = 1
 c83:  λ82 + λ373 + λ374 + λ407 + λ559 + λ579  = 1
 c84:  λ83 + λ371 + λ372 + λ550 + λ811  = 1
 c85:  λ84 + λ368 + λ370 + λ473 + λ715 + λ726 + λ784
       + λ787 + λ826  = 1
 c86:  λ85 + λ362 + λ367 + λ593 + λ658  = 1
 c87:  λ86 + λ358 + λ361 + λ404 + λ453 + λ565 + λ704
       + λ813 + λ825  = 1
 c88:  λ87 + λ354 + λ357 + λ421 + λ578 + λ777 + λ783
       + λ806  = 1
 c89:  λ88 + λ351 + λ353 + λ451 + λ554 + λ724 + λ730
       + λ731 + λ824  = 1
 c90:  λ89 + λ345 + λ369 + λ387 + λ553 + λ778 + λ781
       + λ805 + λ808  = 1
 c91:  λ90 + λ342 + λ348 + λ446 + λ624 + λ707 + λ807  = 1
 c92:  λ91 + λ340 + λ350 + λ360 + λ485 + λ495 + λ496
       + λ642 + λ650  = 1
 c93:  λ92 + λ338 + λ349 + λ359 + λ481 + λ594 + λ655  = 1
 c94:  λ93 + λ335 + λ337 + λ502 + λ503 + λ626 + λ647
       + λ782 + λ788 + λ789 + λ790  = 1
 c95:  λ94 + λ329 + λ331 + λ417 + λ425 + λ436 + λ571
       + λ598 + λ791 + λ821  = 1
 c96:  λ95 + λ328 + λ330 + λ463 + λ589 + λ676 + λ727
       + λ729 + λ775 + λ780 + λ820  = 1
 c97:  λ96 + λ333 + λ334 + λ356 + λ478 + λ555 + λ561
       + λ562  = 1
 c98:  λ97 + λ327 + λ332 + λ355 + λ395 + λ482 + λ483
       + λ488 + λ505 + λ549 + λ580 + λ696 + λ732 + λ822
       + λ823  = 1
 c99:  λ98 + λ324 + λ326 + λ547 + λ548 + λ597 + λ665
       + λ694 + λ712 + λ713 + λ717 + λ779 + λ819  = 1
 c100: λ99 + λ319 + λ323 + λ435 + λ486 + λ546 + λ639
       + λ664 + λ693 + λ710 + λ711 + λ714 + λ728 + λ773
       + λ818  = 1
 c101: λ100 + λ315 + λ316 + λ442 + λ448 + λ477 + λ545
       + λ611 + λ612 + λ643 + λ646 + λ692 + λ718 + λ725
       + λ771 + λ772  = 1
 c102: λ101 + λ313 + λ314  = 1
 c103: λ102 + λ310 + λ311  = 1
 c104: λ103 + λ312 + λ314  = 1
 c105: λ104 + λ312 + λ313  = 1
 c106: λ105 + λ309 + λ311  = 1
 c107: λ106 + λ309 + λ310  = 1
 c108: λ107 + λ307 + λ308  = 1
 c109: λ108 + λ304 + λ305 + λ771  = 1
 c110: λ109 + λ306 + λ308  = 1
 c111: λ110 + λ306 + λ307  = 1
 c112: λ111 + λ303 + λ305 + λ772 + λ818 + λ823  = 1
 c113: λ112 + λ303 + λ304 + λ725 + λ773 + λ819  = 1
 c114: λ113 + λ301 + λ302 + λ561  = 1
 c115: λ114 + λ300 + λ302 + λ562 + λ718 + λ728 + λ779
       + λ820  = 1
 c116: λ115 + λ300 + λ301 + λ555 + λ692 + λ717 + λ780  = 1
 c117: λ116 + λ298 + λ299 + λ650 + λ711  = 1
 c118: λ117 + λ297 + λ299 + λ655 + λ710  = 1
 c119: λ118 + λ297 + λ298 + λ646 + λ677 + λ693 + λ713
       + λ732 + λ821  = 1
 c120: λ119 + λ295 + λ296 + λ578 + λ589  = 1
 c121: λ120 + λ289 + λ290 + λ554 + λ565  = 1
 c122: λ121 + λ291 + λ293 + λ611 + λ642 + λ664 + λ694
       + λ696 + λ729 + λ791 + λ807 + λ808  = 1
 c123: λ122 + λ291 + λ292 + λ612 + λ624 + λ677 + λ712
       + λ775 + λ822  = 1
 c124: λ123 + λ292 + λ293 + λ598 + λ643 + λ676 + λ790  = 1
 c125: λ124 + λ294 + λ296 + λ579 + λ593  = 1
 c126: λ125 + λ294 + λ295 + λ580 + λ594 + λ658 + λ782  = 1
 c127: λ126 + λ286 + λ287 + λ375 + λ707  = 1
 c128: λ127 + λ288 + λ290 + λ545 + λ564 + λ714 + λ789  = 1
 c129: λ128 + λ288 + λ289 + λ550 + λ559  = 1
 c130: λ129 + λ285 + λ286 + λ376 + λ571 + λ639 + λ647
       + λ731 + λ805  = 1
 c131: λ130 + λ284 + λ285 + λ287 + λ377 + λ503 + λ665
       + λ781 + λ806 + λ811 + λ824 + λ825 + λ826  = 1
 c132: λ131 + λ283 + λ284 + λ372 + λ553 + λ783 + λ787
       + λ827  = 1
 c133: λ132 + λ280 + λ283 + λ321 + λ336 + λ402 + λ436
       + λ595 + λ724 + λ778  = 1
 c134: λ133 + λ230 + λ362 + λ482 + λ585 + λ776  = 1
 c135: λ134 + λ276 + λ279 + λ323 + λ392 + λ828 + λ829  = 1
 c136: λ135 + λ280 + λ282 + λ339 + λ398 + λ486  = 1
 c137: λ136 + λ276 + λ279 + λ322 + λ346 + λ387 + λ396
       + λ704 + λ726 + λ786  = 1
 c138: λ137 + λ233 + λ363 + λ434 + λ563  = 1
 c139: λ138 + λ274 + λ275 + λ325 + λ343 + λ383 + λ434
       + λ451 + λ830 + λ831  = 1
 c140: λ139 + λ273 + λ274 + λ342 + λ502 + λ577 + λ784  = 1
 c141: λ140 + λ271 + λ272 + λ275 + λ347 + λ373 + λ406  = 1
 c142: λ141 + λ270 + λ271 + λ339 + λ341 + λ388 + λ685
       + λ777 + λ813 + λ832  = 1
 c143: λ142 + λ264 + λ270 + λ282 + λ389 + λ390 + λ623  = 1
 c144: λ143 + λ264 + λ269 + λ273 + λ281 + λ336 + λ385
       + λ625  = 1
 c145: λ144 + λ253 + λ272 + λ278 + λ357 + λ420 + λ556
       + λ834  = 1
 c146: λ145 + λ260 + λ262 + λ395 + λ399 + λ801  = 1
 c147: λ146 + λ261 + λ262 + λ320 + λ364 + λ463 + λ581  = 1
 c148: λ147 + λ241 + λ368 + λ472 + λ583 + λ607 + λ608
       + λ610 + λ785  = 1
 c149: λ148 + λ258 + λ259 + λ266 + λ267 + λ466 + λ481
       + λ572  = 1
 c150: λ149 + λ258 + λ260 + λ263 + λ352 + λ426 + λ706
       + λ708 + λ834 + λ835 + λ837 + λ838  = 1
 c151: λ150 + λ255 + λ256 + λ259 + λ266 + λ408 + λ471
       + λ788  = 1
 c152: λ151 + λ253 + λ255 + λ334 + λ453 + λ566 + λ567
       + λ573 + λ715 + λ733 + λ792 + λ793 + λ794  = 1
 c153: λ152 + λ236 + λ269 + λ328 + λ409 + λ560  = 1
 c154: λ153 + λ249 + λ251 + λ265 + λ320 + λ346 + λ365
       + λ386 + λ397 + λ557 + λ575  = 1
 c155: λ154 + λ256 + λ257 + λ267 + λ472 + λ473 + λ477
       + λ546 + λ548 + λ697 + λ716 + λ735 + λ737 + λ741
       + λ795 + λ796 + λ839 + λ840 + λ841 + λ843 + λ844
        = 1
 c156: λ155 + λ249 + λ261 + λ326 + λ549 + λ551 + λ648
       + λ649 + λ734 + λ740  = 1
 c157: λ156 + λ248 + λ252 + λ318 + λ352 + λ404 + λ438
       + λ678 + λ742 + λ749  = 1
 c158: λ157 + λ245 + λ247 + λ248 + λ343 + λ347 + λ351
       + λ458 + λ584 + λ804  = 1
 c159: λ158 + λ248 + λ252 + λ317 + λ361 + λ403 + λ747
       + λ774 + λ798  = 1
 c160: λ159 + λ242 + λ244 + λ277 + λ317 + λ318 + λ360
       + λ422 + λ632 + λ738 + λ744  = 1
 c161: λ160 + λ239 + λ244 + λ325 + λ419 + λ454  = 1
 c162: λ161 + λ242 + λ244 + λ278 + λ341 + λ389 + λ417
       + λ424 + λ739 + λ746 + λ809  = 1
 c163: λ162 + λ235 + λ241 + λ369 + λ410 + λ547 + λ569
       + λ705 + λ736 + λ797 + λ800 + λ802 + λ803 + λ810
        = 1
 c164: λ163 + λ220 + λ236 + λ281 + λ316 + λ401 + λ441
       + λ597 + λ641 + λ695 + λ750 + λ752 + λ757 + λ760
       + λ761 + λ764 + λ836  = 1
 c165: λ164 + λ234 + λ236 + λ268 + λ281 + λ315 + λ344
       + λ431 + λ452 + λ602 + λ603 + λ842  = 1
 c166: λ165 + λ241 + λ243 + λ370 + λ411 + λ552 + λ592
       + λ609 + λ747  = 1
 c167: λ166 + λ233 + λ234 + λ364 + λ366 + λ437 + λ558
       + λ666 + λ671 + λ833  = 1
 c168: λ167 + λ239 + λ240 + λ246 + λ317 + λ319 + λ350
       + λ492 + λ670 + λ727 + λ730 + λ745 + λ748 + λ815
       + λ816 + λ817  = 1
 c169: λ168 + λ231 + λ233 + λ365 + λ379 + λ462 + λ747
       + λ755 + λ766 + λ767  = 1
 c170: λ169 + λ226 + λ230 + λ364 + λ365 + λ439 + λ576
       + λ637 + λ640 + λ656 + λ765  = 1
 c171: λ170 + λ221 + λ222 + λ229 + λ238 + λ250 + λ255
       + λ278 + λ331 + λ416 + λ460 + λ480 + λ617  = 1
 c172: λ171 + λ229 + λ230 + λ231 + λ366 + λ394 + λ479
       + λ487 + λ748 + λ753 + λ768 + λ769  = 1
 c173: λ172 + λ209 + λ226 + λ228 + λ232 + λ246 + λ322
       + λ333 + λ352 + λ415 + λ455 + λ459 + λ604 + λ762
        = 1
 c174: λ173 + λ214 + λ222 + λ235 + λ245 + λ249 + λ268
       + λ337 + λ366 + λ442 + λ490 + λ505 + λ672  = 1
 c175: λ174 + λ214 + λ221 + λ251 + λ252 + λ258 + λ327
       + λ389 + λ428 + λ444 + λ498 + λ661 + λ812  = 1
 c176: λ175 + λ211 + λ213 + λ256 + λ262 + λ407 + λ468
       + λ470 + λ493 + λ599 + λ701 + λ834  = 1
 c177: λ176 + λ211 + λ213 + λ257 + λ260 + λ267 + λ401
       + λ402 + λ464 + λ499 + λ613 + λ614 + λ615 + λ616
       + λ699  = 1
 c178: λ177 + λ219 + λ220 + λ228 + λ238 + λ269 + λ277
       + λ329 + λ344 + λ348 + λ349 + λ423 + λ568 + λ570
       + λ621 + λ634  = 1
 c179: λ178 + λ211 + λ213 + λ257 + λ261 + λ266 + λ324
       + λ335 + λ500 + λ600 + λ605 + λ606  = 1
 c180: λ179 + λ218 + λ219 + λ223 + λ225 + λ232 + λ243
       + λ273 + λ325 + λ347 + λ354 + λ440 + λ495 + λ626
       + λ633 + λ638  = 1
 c181: λ180 + λ214 + λ216 + λ223 + λ250 + λ253 + λ341
       + λ356 + λ359 + λ367 + λ374 + λ421 + λ457 + λ494
       + λ601 + λ758  = 1
 c182: λ181 + λ212 + λ216 + λ217 + λ219 + λ224 + λ263
       + λ330 + λ332 + λ346 + λ432 + λ586 + λ587 + λ588
       + λ660  = 1
 c183: λ182 + λ210 + λ216 + λ217 + λ218 + λ228 + λ247
       + λ271 + λ338 + λ353 + λ435 + λ474 + λ483 + λ574
       + λ673 + λ674 + λ700 + λ702  = 1
 c184: λ183 + λ200 + λ208 + λ209 + λ227 + λ237 + λ247
       + λ322 + λ332 + λ378 + λ381 + λ591 + λ682 + λ770
        = 1
 c185: λ184 + λ201 + λ206 + λ209 + λ219 + λ250 + λ343
       + λ345 + λ371 + λ382 + λ484 + λ582 + λ675 + λ703
        = 1
 c186: λ185 + λ200 + λ202 + λ215 + λ217 + λ223 + λ232
       + λ254 + 0.999999999998448 λ274 + λ340 + λ344 + λ358
       + λ384 + λ425 + λ446 + λ448 + λ476 + λ652 + λ653
       + λ654 + λ763  = 1
 c187: λ186 + λ201 + λ202 + λ208 + λ224 + λ227 + λ238
       + λ240 + λ318 + λ320 + λ321 + λ330 + λ355 + λ380
       + λ435 + λ496 + λ667 + λ668 + λ669 + λ680 + λ681
       + λ687  = 1
 c188: λ187 + λ206 + λ207 + λ208 + λ212 + λ215 + λ221
       + λ222 + λ246 + λ335 + λ353 + λ359 + λ412 + λ413
       + λ466 + λ478 + λ488 + λ504 + λ590 + λ596 + λ663
        = 1
 c189: λ188 + λ206 + λ207 + λ209 + λ210 + λ223 + λ237
       + λ254 + λ263 + λ338 + λ355 + λ391 + λ393 + λ414
       + λ472 + λ478 + λ485 + λ491 + λ651 + λ691 + λ754
       + λ759  = 1
 c190: λ189 + λ204 + λ205 + λ207 + λ221 + λ225 + λ226
       + λ231 + λ235 + λ243 + λ245 + λ259 + λ264 + λ280
       + λ405 + λ429 + λ446 + λ447 + λ467 + λ626 + λ627
       + λ628 + λ645 + λ684  = 1
 c191: λ190 + λ204 + λ206 + λ210 + λ217 + λ220 + λ229
       + λ237 + λ243 + λ251 + λ268 + λ270 + λ340 + λ400
       + λ421 + λ442 + λ469 + λ489 + λ491 + λ657 + λ698
        = 1
 c192: λ191 + λ203 + λ204 + λ207 + λ212 + λ216 + λ220
       + λ238 + λ247 + λ265 + λ272 + λ279 + λ354 + λ380
       + λ402 + λ405 + λ427 + λ430 + λ636 + λ679 + λ686
        = 1
 c193: λ192 + λ204 + λ205 + λ207 + λ222 + λ224 + λ240
       + λ250 + λ265 + λ321 + λ329 + λ358 + λ401 + λ418
       + λ433 + λ466 + λ469 + λ475 + λ483 + λ501 + λ743
       + λ748 + λ751  = 1
 c194: λ193 + λ203 + λ204 + λ208 + λ218 + λ224 + λ226
       + λ231 + λ234 + λ239 + λ254 + λ277 + λ324 + λ333
       + λ337 + λ448 + λ466 + λ495 + λ497 + λ505 + λ618
       + λ627 + λ630 + λ635 + λ659 + λ662 + λ683 + λ690
       + λ723  = 1
 c195: λ194 + λ202 + λ203 + λ205 + λ225 + λ227 + λ234
       + λ237 + λ239 + λ245 + λ246 + λ282 + λ321 + λ336
       + λ367 + λ378 + λ391 + λ393 + λ400 + λ427 + λ456
       + λ467 + λ622 + λ688 + λ719 + λ721 + λ722  = 1
 c196: λ195 + λ202 + λ203 + λ205 + λ225 + λ228 + λ229
       + λ232 + λ235 + λ242 + λ276 + λ319 + λ345 + λ434
       + λ485 + λ488 + λ489 + λ590 + λ619 + λ620 + λ631
       + λ662 + λ689 + λ720 + λ756  = 1
 c197: λ196 + λ201 + λ203 + λ205 + λ210 + λ213 + λ215
       + λ227 + λ242 + λ275 + λ277 + λ285 + λ316 + λ339
       + λ382 + λ384 + λ443 + λ450 + λ799  = 1
 c198: λ197 + λ200 + λ202 + λ212 + λ215 + λ218 + λ237
       + λ240 + λ254 + λ315 + λ327 + λ348 + λ356 + λ425
       + λ432 + λ445 + λ644  = 1
 c199: λ198 + λ200 + λ201 + λ211 + λ215 + λ218 + λ227
       + λ263 + λ265 + λ268 + λ284 + λ344 + λ371 + λ374
       + λ381 + λ429 + λ443 + λ449 + λ597 + λ629 + λ709
        = 1
 c200: λ199 + λ200 + λ201 + λ210 + λ212 + λ214 + λ224
       + λ225 + λ251 + λ254 + λ283 + λ331 + λ349 + λ401
       + λ412 + λ413 + λ414 + λ418 + λ430 + λ461 + λ465
       + λ700 + λ799 + λ814  = 1
End
